INCAR created by Atomic Simulation Environment
 ENCUT = 600.000000
 SIGMA = 0.050000
 EDIFF = 1.00e-05
 EDIFFG = -1.00e-02
 GGA = PE
 PREC = Accurate
 IBRION = 2
 ISIF = 3
 ISMEAR = 0
 ISYM = 2
 NSW = 500
 NCORE = 20
 LCHARG = .FALSE.
 LWAVE = .FALSE.
 LREAL = .FALSE.
