Si
 1.0000000000000000
     0.0000000000000000    2.7218511849999998    2.7218511849999998
     2.7218511849999998    0.0000000000000000    2.7218511849999998
     2.7218511849999998    2.7218511849999998    0.0000000000000000
 Si 
   2
Cartesian
  0.0000000000000000  0.0000000000000000  0.0000000000000000
  1.3609255924999999  1.3609255924999999  1.3609255924999999
