Si
 1.0000000000000000
     0.0000000000000000    5.4686266249268289    5.4686266249268289
     5.4686266249268289    0.0000000000000000    5.4686266249268289
     5.4686266249268289    5.4686266249268289    0.0000000000000000
 Si 
  16
Cartesian
  0.0000000000000000  0.0212132034355967  0.0212132034355967
  0.0000000000000000  2.7343133124634145  2.7343133124634145
  2.7343133124634145  0.0000000000000000  2.7343133124634145
  2.7343133124634145  2.7343133124634145  5.4686266249268289
  2.7343133124634145  2.7343133124634145  0.0000000000000000
  2.7343133124634145  5.4686266249268289  2.7343133124634149
  5.4686266249268289  2.7343133124634145  2.7343133124634145
  5.4686266249268281  5.4686266249268289  5.4686266249268289
  1.3671566562317072  1.3671566562317072  1.3671566562317072
  1.3671566562317072  4.1014699686951213  4.1014699686951213
  4.1014699686951221  1.3671566562317072  4.1014699686951230
  4.1014699686951213  4.1014699686951213  6.8357832811585357
  4.1014699686951221  4.1014699686951221  1.3671566562317072
  4.1014699686951221  6.8357832811585357  4.1014699686951213
  6.8357832811585357  4.1014699686951213  4.1014699686951221
  6.8357832811585357  6.8145700777229390  6.8145700777229390
