generated by phonopy
   1.0
     0.0000000000000000    5.4686266249268289    5.4686266249268289
     5.4686266249268289    0.0000000000000000    5.4686266249268289
     5.4686266249268289    5.4686266249268289    0.0000000000000000
Si
  16
Direct
  0.0038790732830257  0.0000000000000000  0.0000000000000000
  0.5000000000000000  0.0000000000000000  0.0000000000000000
  0.0000000000000000  0.5000000000000000  0.0000000000000000
  0.5000000000000000  0.5000000000000000  0.0000000000000000
  0.0000000000000000  0.0000000000000000  0.5000000000000000
  0.5000000000000001  0.0000000000000000  0.5000000000000000
  0.0000000000000000  0.5000000000000000  0.5000000000000000
  0.5038790732830257  0.5000000000000000  0.5000000000000000
  0.1250000000000000  0.1250000000000000  0.1250000000000000
  0.6250000000000000  0.1250000000000000  0.1250000000000000
  0.1250000000000001  0.6250000000000001  0.1249999999999999
  0.6250000000000000  0.6250000000000000  0.1250000000000000
  0.1250000000000000  0.1250000000000000  0.6250000000000001
  0.6249999999999999  0.1250000000000000  0.6250000000000000
  0.1250000000000001  0.6250000000000000  0.6249999999999999
  0.6250000000000000  0.6250000000000000  0.6250000000000000
