POSCAR file written by OVITO Basic 3.5.4
1
5.44370237 0.0 0.0
0.0 5.44370237 0.0
0.0 0.0 5.44370237
Si 
8 
Direct
0.0 0.0 0.0
0.25 0.25 0.25
0.0 0.5 0.5
0.75 0.25 0.75
0.25 0.75 0.75
0.75 0.75 0.25
0.5 0.0 0.5
0.5 0.5 0.0
